# Solution for model GasLib-40
# Objective value = 88.6237325181877
loadshed[innode_1] 0
loadshed[innode_2] 0
loadshed[innode_3] 0
loadshed[innode_4] 0
loadshed[innode_5] 0
loadshed[innode_6] 0
loadshed[innode_7] 0
loadshed[innode_8] 0
loadshed[source_1] 5.1488559557968716e-02
loadshed[source_2] 1.9782366365294490e-01
loadshed[source_3] 3.1127716763549318e-01
loadshed[sink_1] 1
loadshed[sink_2] 0
loadshed[sink_3] 0
loadshed[sink_4] 0
loadshed[sink_5] 0
loadshed[sink_6] 0
loadshed[sink_7] 0
loadshed[sink_8] 0
loadshed[sink_9] 1
loadshed[sink_10] 0
loadshed[sink_11] 0
loadshed[sink_12] 1
loadshed[sink_13] 0
loadshed[sink_14] 0
loadshed[sink_15] 0
loadshed[sink_16] 0
loadshed[sink_17] 0
loadshed[sink_18] 1.6871072201761708e-01
loadshed[sink_19] 0
loadshed[sink_20] 0
loadshed[sink_21] 1
loadshed[sink_22] 3.0005750894681255e-01
loadshed[sink_23] 0
loadshed[sink_24] 9.5026254721774794e-01
loadshed[sink_25] 0
loadshed[sink_26] 0
loadshed[sink_27] 0
loadshed[sink_28] 0
loadshed[sink_29] 0
flow[source_1,sink_3] 1.4995043709488084e+02
flow[innode_1,sink_16] 1.6354166666666970e+01
flow[innode_6,sink_13] 5.5987827862642661e+00
flow[sink_13,sink_14] -1.0755383880402402e+01
flow[sink_14,sink_10] -2.7109550547069070e+01
flow[sink_25,sink_26] 0
flow[sink_26,sink_9] 0
flow[sink_9,sink_18] 0
flow[sink_26,sink_4] -1.6354166666667254e+01
flow[sink_4,sink_20] -7.1723583280265473e+01
flow[sink_18,sink_6] -1.3595043400335523e+01
flow[sink_25,innode_8] -1.1724210376154448e+02
flow[sink_6,sink_7] -4.1396186222767867e+01
flow[sink_6,sink_22] 1.1446976155765672e+01
flow[sink_7,sink_24] 8.1341459237641645e-01
flow[sink_22,sink_1] 0
flow[sink_24,sink_21] 0
flow[sink_21,sink_12] 0
flow[sink_7,sink_5] -5.8563767481810942e+01
flow[sink_5,sink_17] -7.4917934148477613e+01
flow[sink_17,sink_4] -3.9015249946931476e+01
flow[sink_17,sink_8] -5.2256850868212837e+01
flow[sink_3,sink_23] 16.3541666666697
flow[sink_8,sink_20] -6.8611017534879508e+01
flow[sink_25,sink_20] 1.5668876748181160e+02
flow[sink_25,sink_15] -6.1399613173198162e+01
flow[sink_15,sink_29] -4.5561956384726692e+01
flow[sink_29,sink_28] 1.6354166666667879e+01
flow[sink_29,sink_2] 4.8545990121804792e+01
flow[sink_2,sink_15] 3.2191823455138127e+01
flow[sink_29,innode_7] -1.2681627983986603e+02
flow[innode_4,sink_19] 4.1778452082377527e+01
flow[sink_19,innode_3] 3.7171639144919240e+01
flow[innode_4,innode_5] 6.7101931798025234e+01
flow[sink_27,innode_5] -6.7101931798025234e+01
flow[sink_27,sink_19] 5.0747765131358570e+01
flow[sink_10,sink_11] 3.2708333333333641e+01
flow[sink_10,innode_2] -3.9000411402150135e+01
flow[sink_10,innode_3] -3.7171639144919240e+01
flow[innode_6,sink_25] -5.5987827862642661e+00
flow[sink_11,innode_1] 1.6354166666666970e+01
flow[sink_19,innode_2] 3.9000411402150135e+01
flow[source_3,innode_4] 1.0888038388040276e+02
flow[source_2,innode_7] 1.2681627983986603e+02
flow[sink_3,innode_8] 1.1724210376154448e+02
pressure[innode_1] 7.7107664326858526e+01
pressure[innode_2] 7.9320698454040254e+01
pressure[innode_3] 7.9238386068385338e+01
pressure[innode_4] 81.01325
pressure[innode_5] 80.9670937530135
pressure[innode_6] 7.5988739437599762e+01
pressure[innode_7] 81.01325
pressure[innode_8] 8.0512022971935068e+01
pressure[source_1] 81.01325
pressure[source_2] 81.01325
pressure[source_3] 81.01325
pressure[sink_1] 1.0132500000000002e+00
pressure[sink_2] 76.3916865992309
pressure[sink_3] 8.0512022971935068e+01
pressure[sink_4] 3.3372640802006146e+01
pressure[sink_5] 2.6300762026164584e+01
pressure[sink_6] 1.3762781365525658e+00
pressure[sink_7] 1.9445490998175881e+00
pressure[sink_8] 3.3853393341062258e+01
pressure[sink_9] 1.0132500000000002e+00
pressure[sink_10] 7.7259365634462071e+01
pressure[sink_11] 7.7107664326858526e+01
pressure[sink_12] 1.01325
pressure[sink_13] 7.5957874283742612e+01
pressure[sink_14] 7.5977121959352658e+01
pressure[sink_15] 7.6286587390613477e+01
pressure[sink_16] 7.6086014492040846e+01
pressure[sink_17] 3.1881606597844414e+01
pressure[sink_18] 1.0132499999999509e+00
pressure[sink_19] 7.9320698454040254e+01
pressure[sink_20] 3.8634616367907327e+01
pressure[sink_21] 1.01325
pressure[sink_22] 1.01325
pressure[sink_23] 8.0347304960275281e+01
pressure[sink_24] 1.01325
pressure[sink_25] 7.5988739437599762e+01
pressure[sink_26] 3.1293329725533212e+01
pressure[sink_27] 8.0410271710127830e+01
pressure[sink_28] 77.3261290428719
pressure[sink_29] 7.7621411316489088e+01
interdiction[source_1,sink_3] 0
interdiction[innode_1,sink_16] 0
interdiction[innode_6,sink_13] 0
interdiction[sink_13,sink_14] 0
interdiction[sink_14,sink_10] 0
interdiction[sink_25,sink_26] 1
interdiction[sink_26,sink_9] 1
interdiction[sink_9,sink_18] 0
interdiction[sink_26,sink_4] 0
interdiction[sink_4,sink_20] 0
interdiction[sink_18,sink_6] 0
interdiction[sink_25,innode_8] 0
interdiction[sink_6,sink_7] 0
interdiction[sink_6,sink_22] 0
interdiction[sink_7,sink_24] 0
interdiction[sink_22,sink_1] 0
interdiction[sink_24,sink_21] 0
interdiction[sink_21,sink_12] 0
interdiction[sink_7,sink_5] 0
interdiction[sink_5,sink_17] 0
interdiction[sink_17,sink_4] 0
interdiction[sink_17,sink_8] 0
interdiction[sink_3,sink_23] 0
interdiction[sink_8,sink_20] 0
interdiction[sink_25,sink_20] 0
interdiction[sink_25,sink_15] 0
interdiction[sink_15,sink_29] 0
interdiction[sink_29,sink_28] 0
interdiction[sink_29,sink_2] 0
interdiction[sink_2,sink_15] 0
interdiction[sink_29,innode_7] 0
interdiction[innode_4,sink_19] 0
interdiction[sink_19,innode_3] 0
interdiction[innode_4,innode_5] 0
interdiction[sink_27,innode_5] 0
interdiction[sink_27,sink_19] 0
interdiction[sink_10,sink_11] 0
interdiction[sink_10,innode_2] 0
interdiction[sink_10,innode_3] 0
interdiction[innode_6,sink_25] 0
interdiction[sink_11,innode_1] 0
interdiction[sink_19,innode_2] 0
interdiction[source_3,innode_4] 0
interdiction[source_2,innode_7] 0
interdiction[sink_3,innode_8] 0
WCcheckFlow[source_1,sink_3] 39
WCcheckFlow[innode_1,sink_16] 1
WCcheckFlow[innode_6,sink_13] 13
WCcheckFlow[sink_13,sink_14] 12
WCcheckFlow[sink_14,sink_10] 11
WCcheckFlow[sink_25,sink_26] 0
WCcheckFlow[sink_26,sink_9] 0
WCcheckFlow[sink_9,sink_18] -1
WCcheckFlow[sink_26,sink_4] -1
WCcheckFlow[sink_4,sink_20] -14
WCcheckFlow[sink_18,sink_6] -2
WCcheckFlow[sink_25,innode_8] -36
WCcheckFlow[sink_6,sink_7] -5
WCcheckFlow[sink_6,sink_22] 2
WCcheckFlow[sink_7,sink_24] 3
WCcheckFlow[sink_22,sink_1] 1
WCcheckFlow[sink_24,sink_21] 2
WCcheckFlow[sink_21,sink_12] 1
WCcheckFlow[sink_7,sink_5] -9
WCcheckFlow[sink_5,sink_17] -10
WCcheckFlow[sink_17,sink_4] -12
WCcheckFlow[sink_17,sink_8] 1
WCcheckFlow[sink_3,sink_23] 1
WCcheckFlow[sink_8,sink_20] 0
WCcheckFlow[sink_25,sink_20] 15
WCcheckFlow[sink_25,sink_15] 6
WCcheckFlow[sink_15,sink_29] 5
WCcheckFlow[sink_29,sink_28] 1
WCcheckFlow[sink_29,sink_2] 1
WCcheckFlow[sink_2,sink_15] 0
WCcheckFlow[sink_29,innode_7] 2
WCcheckFlow[innode_4,sink_19] -4
WCcheckFlow[sink_19,innode_3] -5
WCcheckFlow[innode_4,innode_5] 2
WCcheckFlow[sink_27,innode_5] -1
WCcheckFlow[sink_27,sink_19] 0
WCcheckFlow[sink_10,sink_11] 3
WCcheckFlow[sink_10,innode_2] 1
WCcheckFlow[sink_10,innode_3] 6
WCcheckFlow[innode_6,sink_25] -14
WCcheckFlow[sink_11,innode_1] 2
WCcheckFlow[sink_19,innode_2] 0
WCcheckFlow[source_3,innode_4] -1
WCcheckFlow[source_2,innode_7] -1
WCcheckFlow[sink_3,innode_8] 37
